c --- [ banner ] -------------------------------------------------------------
c 
c CaDiCaL Radically Simplified CDCL SAT Solver
c Copyright (c) 2016-2021 A. Biere, M. Fleury, N. Froleyks
c 
c Version 1.5.2 a5f15211db36c3956764e18194dd5bd63bf3b5e6
c g++ (GCC) 9.3.0 -Wall -Wextra -O3 -DNDEBUG
c Fri Oct 21 01:27:37 EDT 2022 Linux gra-login3 3.10.0-1160.66.1.el7.x86_64 x86_64
c 
c --- [ limit ] --------------------------------------------------------------
c 
c setting conflict limit to 200000 conflicts (due to '200000')
c 
c --- [ parsing input ] ------------------------------------------------------
c 
c reading DIMACS file from '33.cubes1888.adj'
c opening file to read '33.cubes1888.adj'
c found 'p cnf 6160 1595475' header
c parsed 1595475 clauses in 19.09 seconds process time
c closing file '33.cubes1888.adj'
c after reading 1457566774 bytes 1390.0 MB
c 
c --- [ options ] ------------------------------------------------------------
c 
c all options are set to their default value
c 
c --- [ solving ] ------------------------------------------------------------
c 
c time measured in process time since initialization
c 
c  seconds    reductions  redundant   irredundant
c          MB     restarts       trail       variables
c            level   conflicts       glue         remaining
c 
c * 19.09 1381  0 0   0    0    0  0% 0 1595422 2404 39%
c { 19.96 1421  0 0   0    0    0  0% 0 1595422 2404 39%
c i 20.31 1433 1160 0   0    8    6 36% 1 1595422 2403 39%
c i 21.45 1477 748 0   3   48   38 31% 4 1595422 2382 39%
c i 22.72 1494 490 0  10   73   58 30% 9 1595422 2381 39%
c i 22.75 1494 458 0  11   78   61 30% 10 1595422 2373 39%
c i 23.91 1507 342 0  18  115   84 30% 20 1595422 2368 38%
c i 25.87 1518 269 0  30  158  125 29% 23 1595422 2367 38%
c i 26.06 1518 263 0  32  166  132 29% 23 1595422 2366 38%
c i 26.09 1518 262 0  33  168  132 28% 23 1595422 2364 38%
c i 27.37 1520 219 0  47  229  186 29% 31 1595422 2363 38%
c i 27.60 1520 206 0  52  250  202 29% 32 1595422 2353 38%
c - 32.21 1461 184 1  60  300  245 29% 31 221313 2352 38%
c i 32.45 1461 181 1  60  306  250 29% 31 221313 2351 38%
c i 32.48 1461 181 1  60  308  250 29% 31 221313 2349 38%
c i 32.87 1461 180 1  65  327  267 29% 34 221313 2347 38%
c i 32.99 1461 180 1  68  338  276 29% 35 221313 2346 38%
c i 33.49 1461 146 1  82  452  371 29% 35 221313 2345 38%
c i 33.52 1461 142 1  82  471  382 28% 35 221313 2344 38%
c i 33.62 1461 133 1  82  517  412 28% 35 221313 2343 38%
c 
c  seconds     reductions  redundant   irredundant
c          MB      restarts       trail       variables
c             level   conflicts       glue         remaining
c 
c i 33.63 1461 132 1  82  522  415 28% 35 221313 2342 38%
c i 33.64 1461 131 1  82  529  420 28% 34 221313 2341 38%
c i 33.72 1461 129 1  82  549  436 28% 35 221313 2340 38%
c i 33.82 1461 125 1  82  574  452 28% 35 221313 2339 38%
c i 33.85 1461 123 1  82  586  463 28% 34 221313 2338 38%
c i 33.97 1461 123 1  83  598  474 28% 35 221313 2337 38%
c i 34.26 1461 123 1  89  626  497 28% 36 221313 2336 38%
c i 34.28 1461 122 1  90  631  501 28% 36 221313 2335 38%
c i 34.35 1461 121 1  97  660  520 28% 38 221313 2334 38%
c i 34.37 1461 120 1  98  672  530 28% 38 221313 2333 38%
c i 34.52 1461 120 1 103  689  544 28% 38 221313 2328 38%
c i 35.06 1461 123 1 116  738  589 28% 43 221313 2327 38%
c i 35.08 1461 123 1 117  742  591 28% 43 221313 2326 38%
c i 35.12 1461 124 1 119  748  595 28% 43 221313 2325 38%
c i 35.54 1461 122 1 128  780  618 28% 42 221313 2324 38%
c i 35.69 1461 118 1 128  815  645 28% 42 221313 2323 38%
c } 36.14 1461 107 1 128 1005  799 28% 40 221313 2323 38%
c [ 36.14 1461  0 1 128 1005  799  0% 0 221313 2323 38%
c O 36.14 1461  1 1 128 1006  799 12% 0 221313 2323 38%
c i 36.14 1461  1 1 128 1006  799 12% 0 221313 2307 37%
c 
c  seconds    reductions  redundant   irredundant
c          MB     restarts       trail       variables
c            level   conflicts       glue         remaining
c 
c i 36.38 1461 21 1 128 1034  823 31% 17 221313 2306 37%
c - 36.92 1459 31 2 128 1107  774 33% 27 172989 2306 37%
c i 37.10 1459 30 2 128 1289  870 33% 26 172989 2305 37%
c i 37.16 1459 31 2 128 1444  964 33% 26 172989 2304 37%
c i 37.23 1459 31 2 128 1655 1106 33% 26 172989 2303 37%
c i 37.23 1459 31 2 128 1660 1110 33% 26 172989 2302 37%
c i 37.24 1459 31 2 128 1690 1130 33% 26 172989 2301 37%
c i 37.27 1459 30 2 128 1804 1186 33% 26 172989 2300 37%
c i 37.28 1459 30 2 128 1808 1189 33% 26 172989 2299 37%
c i 37.31 1459 30 2 128 1826 1202 33% 26 172989 2298 37%
c - 37.71 1458 31 3 129 2223 1039 32% 27 172966 2298 37%
c i 38.01 1429 31 3 129 2331 1121 56% 27 172966 2297 37%
c i 38.02 1429 31 3 129 2362 1143 56% 27 172966 2296 37%
c i 38.03 1429 31 3 129 2378 1152 56% 27 172966 2295 37%
c i 38.13 1429 30 3 129 2515 1236 55% 26 172966 2294 37%
c i 38.26 1429 30 3 129 2678 1343 55% 26 172966 2293 37%
c i 38.32 1429 30 3 129 2751 1391 55% 26 172966 2292 37%
c i 38.33 1429 30 3 129 2764 1396 55% 26 172966 2291 37%
c i 38.40 1429 30 3 129 2833 1439 55% 26 172966 2290 37%
c ] 38.55 1429 30 3 129 3008 1553 55% 26 172966 2290 37%
c 
c  seconds     reductions  redundant   irredundant
c          MB      restarts       trail       variables
c             level   conflicts       glue         remaining
c 
c { 38.55 1429 107 3 129 3008 1553 75% 40 172966 2290 37%
c F 38.56 1429 107 3 129 3009 1554 75% 40 172966 2290 37%
c i 39.00 1429 96 3 129 3200 1701 70% 36 172966 2288 37%
c i 39.05 1429 95 3 129 3229 1723 70% 36 172966 2287 37%
c i 39.17 1429 87 3 129 3381 1827 68% 34 172966 2286 37%
c i 39.18 1429 86 3 129 3414 1849 67% 34 172966 2285 37%
c i 39.21 1429 83 3 129 3465 1889 66% 33 172966 2284 37%
c - 39.89 1428 78 4 142 3708 1525 64% 33 172924 2284 37%
c i 40.05 1428 72 4 142 3969 1714 62% 31 172924 2283 37%
c 2 40.79 1428 58 4 148 5002 3516 57% 29 172899 2277 37%
c p 45.15 1427 58 4 148 5002 5875 57% 29 172899 2220 36%
c d 45.44 1427 58 4 148 5002 5852 57% 29 172728 2218 36%
c - 46.00 1352 53 5 148 5564 2219 56% 28 172728 2218 36%
c # 46.18 1352 50 5 148 6011 2544 55% 27 172728 2218 36%
c } 48.98 1352 50 5 266 7008 3342 54% 28 172728 2218 36%
c [ 48.98 1352 30 5 266 7008 3342 55% 26 172728 2218 36%
c - 49.32 1352 35 6 267 7791 2685 52% 30 172728 2218 36%
c I 50.07 1352 33 6 268 10016 4078 49% 28 172728 2218 36%
c - 50.64 1352 39 7 269 10390 3020 49% 32 172728 2218 36%
c - 52.72 1352 63 8 271 13360 3841 48% 51 172728 2218 36%
c 
c  seconds    reductions   redundant   irredundant
c          MB     restarts        trail       variables
c            level    conflicts       glue         remaining
c 
c 2 53.83 1352 70 8 271 15004 6278 47% 56 172725 2218 36%
c p 55.37 1352 70 8 271 15004 8646 47% 56 172725 2218 36%
c ] 55.47 1352 70 8 271 15008 8650 47% 56 172725 2218 36%
c { 55.47 1352 50 8 271 15008 8650 54% 28 172725 2218 36%
c B 55.56 1352 50 8 273 15018 8660 54% 28 172725 2218 36%
c - 56.86 1352 43 9 322 16700 4610 53% 26 172725 2218 36%
c s 57.44 1352 38 9 322 18749 5767 52% 24 170922 2218 36%
c v 59.85 1352 38 9 322 18749 5767 52% 24 170906 2218 36%
c t 60.01 1352 38 9 322 18749 5750 52% 24 170899 2218 36%
c e 60.71 1354 38 9 322 18749 5125 52% 24 167962 807 13%
c s 60.79 1354 38 9 322 18749 5125 52% 24 164994 807 13%
c - 62.60 1354 36 10 334 20414 4654 76% 23 164994 807 13%
c W 64.13 1354 36 10 384 21020 5121 76% 23 164994 807 13%
c - 68.93 1354 33 11 469 24431 4973 76% 22 164994 807 13%
c F 78.30 1354 37 11 918 28021 7700 76% 23 164994 807 13%
c - 81.82 1354 38 12 1095 28813 6036 76% 24 164994 807 13%
c 3 82.49 1354 37 12 1102 30004 7119 76% 24 164994 807 13%
c 2 82.53 1354 37 12 1102 30004 7123 76% 24 164993 807 13%
c p 84.02 1354 37 12 1102 30004 8637 76% 24 164993 807 13%
c } 84.52 1354 36 12 1102 31008 9337 76% 24 164993 807 13%
c 
c  seconds    reductions     redundant    irredundant
c          MB      restarts         trail        variables
c            level      conflicts        glue        remaining
c 
c [ 84.53 1354 70 12 1102 31008 9337 135% 56 164993 807 13%
c - 85.81 1354 60 13 1103 33561 6550 122% 49 164993 807 13%
c B 87.00 1354 53 13 1105 36024 8123 113% 44 164993 807 13%
c - 88.44 1354 53 14 1106 38676 7227 107% 44 164993 807 13%
c - 91.14 1354 52 15 1109 44154 7984 99% 42 164993 807 13%
c W 92.25 1354 52 15 1109 45026 8666 98% 42 164993 807 13%
c s 93.71 1354 48 15 1110 49452 11559 95% 39 161700 807 13%
c v 96.03 1354 48 15 1110 49452 11559 95% 39 161692 807 13%
c w 96.15 1354 48 15 1110 49452 11559 95% 39 161692 807 13%
c t 96.16 1354 48 15 1110 49452 11559 95% 39 161691 807 13%
c s 96.96 1356 48 15 1110 49452 11559 95% 39 159028 807 13%
c - 98.05 1355 48 16 1110 49998 7843 94% 39 159028 807 13%
c p 98.88 1355 48 16 1110 50004 9827 94% 39 159028 807 13%
c O 100.85 1356 47 16 1111 55027 13304 92% 39 159028 807 13%
c - 101.32 1355 46 17 1112 56129 8453 91% 38 159028 807 13%
c - 102.70 1356 42 18 1116 62617 8391 89% 34 159028 807 13%
c ] 102.77 1356 42 18 1117 63010 8633 89% 34 159028 807 13%
c { 102.77 1356 36 18 1117 63010 8633 76% 24 159028 807 13%
c B 103.36 1356 34 18 1139 66028 10811 77% 23 159028 807 13%
c - 106.21 1356 34 19 1299 69466 9296 77% 23 159028 807 13%
c 
c  seconds     reductions      redundant   irredundant
c           MB      restarts          trail       variables
c             level      conflicts        glue        remaining
c 
c p 109.91 1356 32 19 1346 75004 14844 78% 22 159028 807 13%
c - 110.70 1356 31 20 1346 76676 9255 78% 22 159028 807 13%
c } 110.73 1356 31 20 1346 76727 9290 78% 22 159028 807 13%
c 1 110.73 1356 31 20 1346 76727 9290 78% 22 159028 807 13%
c 
c --- [ writing output ] -----------------------------------------------------
c 
c writing simplified CNF to DIMACS file 'simp/33.cubes1888.adj.simp1'
c * 110.73 1356 31 20 1346 76727 9290 78% 22 159028 807 13%
c opening file to write 'simp/33.cubes1888.adj.simp1'
c writing 'p cnf 6160 159028' header
c closing file 'simp/33.cubes1888.adj.simp1'
c after writing 83827659 bytes 79.9 MB
c wrote 159028 clauses in 0.61 seconds process time
c 
c --- [ writing extension ] --------------------------------------------------
c 
c writing extension stack to 'simp/33.cubes1888.adj.ext1'
c opening file to write 'simp/33.cubes1888.adj.ext1'
c closing file 'simp/33.cubes1888.adj.ext1'
c after writing 92982 bytes 0.1 MB
c wrote 4075 witnesses in 0.00 seconds process time
c 
c --- [ result ] -------------------------------------------------------------
c 
s SATISFIABLE
c 
c --- [ run-time profiling ] -------------------------------------------------
c 
c process time taken by individual solving procedures
c (percentage relative to process time for solving)
c 
c        73.45   80.15% search
c        51.53   56.23% unstable
c        19.96   21.78% stable
c        19.09   20.83% parse
c        18.19   19.85% simplify
c         9.33   10.18% probe
c         4.96    5.42% vivify
c         2.68    2.92% elim
c         1.09    1.19% walk
c         0.87    0.95% lucky
c         0.40    0.43% subsume
c         0.13    0.14% ternary
c   =================================
c        91.64   82.31% solve
c 
c last line shows process time for solving
c (percentage relative to total process time)
c 
c --- [ statistics ] ---------------------------------------------------------
c 
c chronological:             13763        17.94 %  of conflicts
c conflicts:                 76727       837.27    per second
c decisions:                180994      1975.07    per second
c eliminated:                 1411        22.91 %  of all variables
c fixed:                       792        12.86 %  of all variables
c learned:                   75069        97.84 %  per conflict
c learned_lits:           15717174       100.00 %  learned literals
c minimized:                     0         0.00 %  learned literals
c shrunken:                9522590        60.59 %  learned literals
c minishrunken:            1273109         8.10 %  learned literals
c propagations:            5717114         0.06 M  per second
c reduced:                   43761        57.03 %  per conflict
c rephased:                     11      6975.18    interval
c restarts:                   1346        57.00    interval
c stabilizing:                   3        54.75 %  of conflicts
c substituted:                   6         0.10 %  of all variables
c subsumed:                  32238         0.95 %  of all clauses
c strengthened:               8174         0.24 %  of all clauses
c ternary:                    2834         0.60 %  of resolved
c vivified:                     47         0.00 %  of all clauses
c walked:                        2     38363.50    interval
c weakened:                   3283         3.10    average size
c 
c seconds are measured in process time for solving
c 
c --- [ resources ] ----------------------------------------------------------
c 
c total process time since initialization:       111.34    seconds
c total real time since initialization:          111.68    seconds
c maximum resident set size of process:         1540.70    MB
c 
c --- [ shutting down ] ------------------------------------------------------
c 
c exit 10
WARNING! DIMACS header mismatch: wrong number of variables.
============================[ Problem Statistics ]=============================
|                                                                             |
|  Number of variables:          3099                                         |
|  Number of clauses:          159028                                         |
|  Parse time:                   1.09 s                                       |
|  Simplification time:          0.02 s                                       |
|                                                                             |
============================[ Search Statistics ]====================================================
| Conflicts |          ORIGINAL         |          LEARNT          | Num Sols |      SUBGRAPHS      |
|           |    Vars  Clauses Literals |    Limit  Clauses Lit/Cl |          | Canonical Noncanon. |
=====================================================================================================
|       148 |    3008   159076 17818227 |     2000      148    107 |        0 |        39        48 |
|       390 |    3008   159168 17820262 |     2000      390     97 |        0 |        63       140 |
|       631 |    3008   159184 17820927 |     2000      631    105 |        0 |        72       156 |
|      1425 |    3008   159641 17828346 |     2000     1425     71 |        0 |       232       613 |
|      1999 |    3008   159709 17829912 |     2000     1999     81 |        0 |       262       681 |
|      2775 |    3008   159726 17830158 |     3604     1779     61 |        0 |       279       698 |
|      4197 |    3008   160009 17835221 |     3604     3201     81 |        0 |       342       981 |
|      6297 |    3008   160401 17841942 |     5002     3499     60 |        0 |       433      1373 |
|      9577 |    3008   161119 17853958 |     6306     4283     55 |        0 |       727      2091 |
|     14631 |    3008   162329 17874710 |     7554     6185     54 |        0 |      1067      3301 |
|     20941 |    3008   162873 17882979 |     8782     8723     73 |        0 |      1191      3845 |
|     31158 |    3008   164441 17914633 |    11210     9568     67 |        0 |      1650      5413 |
|     44607 |    3008   164916 17924505 |    13615    11222     62 |        0 |      1797      5888 |
|     67114 |    3008   167962 17978180 |    17209    11523     45 |        0 |      2354      8934 |
|     96906 |    3008   168562 17990385 |    20824    13730     44 |        0 |      2535      9534 |
|    143020 |    3008   170887 18028200 |    25617    14637     34 |        0 |      3186     11859 |
|    211064 |    3008   173247 18071022 |    30414    27878     71 |        0 |      3979     14219 |
|    317633 |    3008   181290 18204447 |    37612    34245     64 |        0 |      4894     22262 |
|    469374 |    3008   185242 18267272 |    46029    41803     74 |        0 |      5756     26214 |
|    693537 |    3008   187722 18308882 |    56819    37356     53 |        0 |      6315     28694 |
|   1030199 |    3008   191859 18378939 |    68813    63012     75 |       11 |      7466     32820 |
|   1541647 |    3008   204519 18581497 |    84418    80465     69 |       13 |     11986     45478 |
|   2331402 |    3008   246092 19415517 |   104822    71224     49 |       13 |     23953     87051 |
|   3494358 |    3007   286746 20274970 |   128819    72177     31 |       16 |     35850    127730 |
|   5183920 |    3007   292897 20435016 |   156427   128747     62 |       17 |     39371    133880 |
|   7720999 |    3007   304860 20715972 |   191217   154416     57 |       28 |     45538    145832 |
|  11530502 |    3006   326673 21211851 |   234424   144326     45 |       40 |     55686    167648 |
|  17221354 |    2983   323774 21139409 |   286005   253759     65 |       61 |     62348    176967 |
=====================================================================================================
Number of solutions   : 62
Canonical subgraphs   : 63687          (9 /sec)
          order  3    : 1              (200000 /sec)
          order  4    : 1              (500000 /sec)
          order  5    : 1              (200000 /sec)
          order  6    : 1              (52632 /sec)
          order  7    : 1              (8197 /sec)
          order  8    : 2              (1361 /sec)
          order  9    : 4              (240 /sec)
          order 10    : 12             (57 /sec)
          order 11    : 55             (18 /sec)
          order 12    : 233            (18 /sec)
          order 13    : 1008           (28 /sec)
          order 14    : 4627           (22 /sec)
          order 15    : 17560          (13 /sec)
          order 16    : 19149          (10 /sec)
          order 17    : 13128          (7 /sec)
          order 18    : 5899           (6 /sec)
          order 19    : 969            (5 /sec)
          order 20    : 518            (6 /sec)
          order 21    : 456            (6 /sec)
          order 22    : 62             (1 /sec)
Noncanonical subgraphs: 180871         (235 /sec)
          order  3    : 0              (-nan /sec)
          order  4    : 0              (-nan /sec)
          order  5    : 0              (-nan /sec)
          order  6    : 0              (-nan /sec)
          order  7    : 0              (-nan /sec)
          order  8    : 0              (-nan /sec)
          order  9    : 0              (-nan /sec)
          order 10    : 0              (-nan /sec)
          order 11    : 0              (-nan /sec)
          order 12    : 0              (-nan /sec)
          order 13    : 5049           (6137 /sec)
          order 14    : 7508           (7593 /sec)
          order 15    : 102261         (751 /sec)
          order 16    : 28196          (480 /sec)
          order 17    : 17905          (197 /sec)
          order 18    : 19245          (49 /sec)
          order 19    : 227            (19 /sec)
          order 20    : 3              (69 /sec)
          order 21    : 5              (65 /sec)
Canonicity checking   : 6742.54 s
Noncanonicity checking: 771.251 s
Total canonicity time : 7513.79 s
database reductions   : 249
restarts              : 28668
conflicts             : 19055931       (1377 /sec)
decisions             : 24175521       (0.00 % random) (1746 /sec)
propagations          : 784819990      (56693 /sec)
conflict literals     : 2164640468     (56.32 % deleted)
actual reward         : 0.307270
Memory used           : 414.00 MB
CPU time              : 13843.4 s

UNSATISFIABLE
